0.0  13.0  31.0  41.0  45.0  33.0
13.0  0.0  42.0  48.0  45.0  22.0
31.0  42.0  0.0  58.0  38.0  64.0
41.0  48.0  58.0  0.0  86.0  52.0
45.0  45.0  38.0  86.0  0.0  64.0
33.0  22.0  64.0  52.0  64.0  0.0